575,352
326,350
1069,124
799,388
561,406
927,67
947,599
552,805
681,-74
891,406
602,909
738,424
609,458
681,496
342,67
491,780
708,491
474,374
1125,476
597,322
646,454
366,635
524,891
282,535
795,369
799,388
168,240
491,216
1108,623
